100 6500
1 19
2 7
2 24
2 30
1 48
2 2
1 2
2 16
1 28
2 46
2 27
2 39
2 23
2 5
1 15
2 35
2 37
2 40
2 33
2 37
1 50
2 27
2 34
1 40
2 38
2 22
1 6
2 36
2 24
1 14
2 49
1 39
1 9
1 32
2 14
2 15
1 43
1 10
2 38
1 45
2 4
2 44
1 46
2 25
2 17
1 1
2 11
2 31
1 44
2 33
2 42
1 1
2 12
2 8
2 17
2 3
1 13
2 29
2 41
2 18
1 19
2 20
1 50
1 32
2 22
2 9
1 10
2 36
1 20
1 35
1 13
1 3
1 26
2 8
1 12
1 21
2 41
2 34
1 47
1 26
1 45
2 29
2 16
1 25
1 21
2 5
1 7
2 47
1 23
2 11
1 31
1 48
2 42
1 6
1 49
1 43
1 4
2 30
1 18
1 28
